Reading model...
...model read.
creating competitive generators file...
...competitive generators recorded.
Loading data...
.. real-time data read.
Compiling instance...
...instance created.
Creating Offer Mitigation (model will solve as dispatch if TRUE)...
...storage offer mitigation file created
Solving...

Welcome to IBM(R) ILOG(R) CPLEX(R) Interactive Optimizer 12.9.0.0
  with Simplex, Mixed Integer & Barrier Optimizers
5725-A06 5725-A29 5724-Y48 5724-Y49 5724-Y54 5724-Y55 5655-Y21
Copyright IBM Corp. 1988, 2019.  All Rights Reserved.

Type 'help' for a list of available commands.
Type 'help' followed by a command name for more
information on commands.

CPLEX> Logfile 'cplex.log' closed.
Logfile 'C:\Users\llavin\Desktop\test715\logs\tmpo0xppsof.cplex.log' open.
CPLEX> New value for parallel optimization mode: -1
CPLEX> New value for mixed integer optimality gap tolerance: 0.01
CPLEX> New value for deterministic time limit in ticks: 100000
CPLEX> Problem 'C:\Users\llavin\Desktop\test715\logs\tmpkofibp_d.pyomo.lp' read.
Read time = 0.11 sec. (6.10 ticks)
CPLEX> Problem name         : C:\Users\llavin\Desktop\test715\logs\tmpkofibp_d.pyomo.lp
Objective sense      : Minimize
Variables            :   51733  [Nneg: 1,  Box: 42900,  Free: 8832]
Objective nonzeros   :    4992
Linear constraints   :   54776  [Less: 27733,  Greater: 8832,  Equal: 18211]
  Nonzeros           :  173100
  RHS nonzeros       :   23748

Variables            : Min LB: -5000.000        Max UB: 1000000.       
Objective nonzeros   : Min   : 15.73158         Max   : 124.0997       
Linear constraints   :
  Nonzeros           : Min   : 0.8500000        Max   : 390.6461       
  RHS nonzeros       : Min   : 0.1000000        Max   : 2000.000       
CPLEX> CPXPARAM_Parallel                                -1
CPXPARAM_DetTimeLimit                            100000
CPXPARAM_MIP_Tolerances_MIPGap                   0.01
Parallel mode: opportunistic, using up to 32 threads for concurrent optimization.
Tried aggregator 1 time.
LP Presolve eliminated 40763 rows and 29359 columns.
Aggregator did 1558 substitutions.
Reduced LP has 12455 rows, 20816 columns, and 73331 nonzeros.
Presolve time = 0.11 sec. (61.98 ticks)
Symmetry aggregator did 14095 additional substitutions.
Initializing dual steep norms . . .

Iteration log . . .
Iteration:     1   Dual objective     =             0.000000
Perturbation started.
Iteration:   101   Dual objective     =             0.000000
Iteration:   411   Dual objective     =            67.493655
Iteration:   755   Dual objective     =           117.796466
Iteration:  1088   Dual objective     =           126.476203
Iteration:  1426   Dual objective     =           126.808427
Iteration:  1752   Dual objective     =           126.850234
Iteration:  2046   Dual objective     =           126.875746
Iteration:  2267   Dual objective     =           126.902753
Iteration:  2639   Dual objective     =          1386.346207
Removing perturbation.

Dual crossover.
  Dual:  Fixed no variables.
  Primal:  Fixed no variables.

Dual simplex solved model.


Dual simplex - Optimal:  Objective =  1.2594356472e+03
Solution time =    0.30 sec.  Iterations = 2690 (0)
Deterministic time = 164.92 ticks  (555.29 ticks/sec)

CPLEX> Solution written to file 'C:\Users\llavin\Desktop\test715\logs\tmp2g_iiizq.cplex.sol'.
CPLEX> Exporting results... 
